c instance by G2
c solution = 10101100010101000001111
c Known solution cost is 1232 
p cnf 23 30
w 77 25 87 6 47 66 30 75 17 47 45 52 67 53 69 98 5 25 90 46 67 49 89
2 8 14 0
-11 -12 -22 0
-23 7 -2 0
21 17 -23 0
7 -19 -20 0
-7 -10 15 0
2 15 -4 0
-2 11 18 0
-13 -21 -23 0
-8 -12 -20 0
-23 3 18 0
-14 4 -16 0
-22 19 23 0
17 -5 14 0
10 -22 9 0
19 -1 12 0
16 5 8 0
18 22 -10 0
13 20 -1 0
-12 -17 16 0
17 15 -9 0
-16 22 19 0
-18 -1 -20 0
-21 11 1 0
23 -11 -17 0
17 16 6 0
-5 -3 -15 0
6 -15 -18 0
-14 -16 8 0
8 15 -7 0
